Version identifier: 22.1.0.0 | 2022-03-09 | 1a383f8ce
CPXPARAM_Threads                                 1
CPXPARAM_MIP_Strategy_VariableSelect             3
CPXPARAM_TimeLimit                               599.99998296199999
1 of 1 MIP starts provided solutions.
MIP start 'm1' defined initial solution with objective 1.0000.
Tried aggregator 1 time.
MIP Presolve eliminated 18 rows and 0 columns.
MIP Presolve modified 50 coefficients.
Reduced MIP has 4503 rows, 10500 columns, and 231569 nonzeros.
Reduced MIP has 10500 binaries, 0 generals, 0 SOSs, and 0 indicators.
Presolve time = 0.22 sec. (377.55 ticks)
Probing time = 0.03 sec. (28.55 ticks)
Tried aggregator 1 time.
Detecting symmetries...
MIP Presolve modified 15 coefficients.
Reduced MIP has 4503 rows, 10500 columns, and 231746 nonzeros.
Reduced MIP has 10500 binaries, 0 generals, 0 SOSs, and 0 indicators.
Presolve time = 0.22 sec. (355.13 ticks)
Probing time = 0.03 sec. (28.56 ticks)
Clique table members: 3240.
MIP emphasis: balance optimality and feasibility.
MIP search method: dynamic search.
Parallel mode: none, using 1 thread.
Root relaxation solution time = 130.90 sec. (162871.44 ticks)

        Nodes                                         Cuts/
   Node  Left     Objective  IInf  Best Integer    Best Bound    ItCnt     Gap

*     0+    0                            1.0000   125250.0000              --- 
      0     0      500.0000  2110        1.0000      500.0000   178822     --- 
      0     0      500.0000   256        1.0000    Cliques: 1   180699     --- 
      0     0      500.0000  2301        1.0000      Cuts: 91   217965     --- 
      0     0      500.0000   577        1.0000   ZeroHalf: 1   238903     --- 
*     0+    0                          454.0000      500.0000            10.13%
*     0+    0                          494.0000      500.0000             1.21%
      0     0        cutoff            494.0000      500.0000   238903    1.21%
*     0+    0                          500.0000      500.0000             0.00%
      0     0        cutoff            500.0000      500.0000   238903    0.00%
Elapsed time = 232.19 sec. (284623.93 ticks, tree = 0.01 MB, solutions = 4)

Clique cuts applied:  5
Zero-half cuts applied:  14

Root node processing (before b&c):
  Real time             =  232.19 sec. (284625.22 ticks)
Sequential b&c:
  Real time             =    0.00 sec. (0.00 ticks)
                          ------------
Total (root+branch&cut) =  232.19 sec. (284625.22 ticks)
Primal:	500
Dual:	500
Status:	Optimal
Time:	232.26
Sequence:
	15
	16
	0
	15
	0
	16
	15
	0
	6
	15
	2
	16
	17
	9
	16
	17
	11
	16
	17
	4
	3
	10
	2
	19
	17
	7
	19
	17
	7
	8
	17
	2
	19
	17
	0
	8
	12
	13
	9
	12
	13
	8
	12
	13
	8
	5
	13
	8
	5
	18
	11
	5
	18
	3
	14
	18
	3
	14
	4
	18
	14
	3
	18
	5
	19
	2
	5
	16
	9
	17
	16
	2
	15
	7
	0
	15
	2
	0
	15
	7
	16
	15
	0
	7
	15
	16
	7
	15
	6
	2
	15
	6
	7
	15
	2
	0
	10
	6
	11
	18
	5
	11
	6
	10
	0
	19
	10
	0
	19
	17
	7
	16
	15
	7
	16
	5
	11
	16
	17
	9
	16
	17
	11
	16
	5
	18
	9
	5
	18
	11
	5
	13
	8
	12
	13
	11
	5
	18
	19
	5
	18
	9
	12
	13
	11
	5
	18
	4
	14
	1
	11
	14
	1
	9
	14
	1
	11
	12
	13
	9
	12
	18
	19
	5
	1
	8
	14
	1
	9
	14
	2
	9
	10
	7
	6
	15
	2
	6
	15
	0
	2
	15
	7
	2
	5
	19
	18
	5
	11
	13
	12
	8
	13
	12
	9
	13
	5
	9
	18
	5
	11
	18
	5
	19
	1
	12
	8
	13
	12
	9
	18
	5
	19
	18
	5
	11
	13
	5
	8
	7
	10
	8
	7
	10
	4
	3
	10
	4
	3
	17
	4
	3
	17
	16
	8
	17
	16
	4
	10
	3
	4
	14
	18
	4
	14
	3
	18
	12
	9
	1
	14
	11
	1
	14
	9
	1
	14
	9
	1
	14
	8
	1
	14
	9
	1
	14
	4
	18
	14
	3
	7
	17
	19
	2
	17
	11
	6
	10
	4
	3
	10
	4
	3
	10
	4
	3
	10
	2
	19
	17
	7
	9
	10
	2
	19
	17
	7
	19
	17
	7
	9
	10
	7
	2
	15
	6
	7
	15
	2
	6
	15
	7
	7
	15
	16
	0
	15
	7
	16
	15
	7
	0
	15
	16
	0
	15
	0
	16
	15
	7
	0
	15
	16
	0
	15
	0
	16
	15
	0
	6
	15
	0
	16
	15
	0
	7
	14
	8
	18
	5
	3
	18
	14
	7
	11
	1
	14
	11
	1
	14
	9
	1
	14
	9
	1
	14
	11
	1
	14
	9
	1
	5
	8
	18
	5
	11
	13
	5
	8
	13
	12
	8
	13
	12
	9
	18
	5
	11
	13
	5
	11
	1
	14
	8
	1
	14
	9
	1
	14
	9
	7
	17
	19
	7
	17
	19
	2
	10
	9
	6
	10
	8
	2
	17
	9
	2
	10
	9
	7
	10
	8
	2
	17
	4
	3
	17
	4
	3
	10
	4
	3
	14
	1
	11
	12
	13
	8
	5
	13
	8
	12
	13
	8
	5
	18
	19
	5
	18
	9
	5
	18
	11
	5
	13
	9
	5
	13
	4
	3
	14
	1
	8
	12
	13
	8
	5
	1
	9
	14
	1
	9
	12
	13
	3
	4
	10
	7
	9
	10
	2
	11
	17
	0
	19
	10
	0
	8
	17
	16
	4
	10
	6
	8
	10
	6
	0
	15
	0
	16
	15
